(set-info :origin "SVCOMP13 benchmarks generated by Arie Gurfinkel")
(set-info :status sat)
(set-logic HORN)
(declare-fun cp-rel-__UFO__0
             (Real
              Real
              Real
              Real
              Real
              Real
              Real
              Bool
              Real
              Real
              Real
              Real
              Real
              Real
              Real)
             Bool)
(declare-fun cp-rel-entry () Bool)
(declare-fun cp-rel-bb1.i66.i.i () Bool)
(declare-fun cp-rel-bb.i80.i.outer
             (Real Real Real Real Real Real Real Real)
             Bool)
(declare-fun cp-rel-bb.i80.i (Bool Real Real Real Real Real Real Real) Bool)
(assert |cp-rel-entry|)
(assert (forall ((?A Real) (?B Real) (?C Real) (?D Real) (?E Real) (?F Real) (?G Real) (?H Real) (?I Bool) )(let (($x168081 (= ?I true)))
(let (($x752030 (and |cp-rel-entry| (<= ?H 0.0) (>= ?G 0.0) (<= ?G 0.0) (>= ?F 0.0) (<= ?F 0.0) (>= ?E 0.0) (<= ?E 0.0) (>= ?D 0.0) (<= ?D 0.0) (>= ?C 0.0) (<= ?C 0.0) (>= ?B 0.0) (<= ?B 0.0) (>= ?A 0.0) (<= ?A 0.0) $x168081 (>= ?H 0.0))))
(=> $x752030 (|cp-rel-bb.i80.i.outer| ?A ?B ?C ?D ?E ?F ?G ?H)))))
)
(assert (forall ((?A Real) (?B Real) (?C Real) (?D Real) (?E Real) (?F Real) (?G Real) (?H Real) (?I Bool) (?J Real) (?K Real) (?L Real) (?M Real) (?N Real) (?O Real) (?P Real) (?Q Bool) (?R Bool) (?S Bool) (?T Bool) (?U Bool) (?V Bool) (?W Bool) (?X Bool) (?Y Bool) (?Z Bool) (?A1 Bool) (?B1 Bool) (?C1 Bool) (?D1 Bool) (?E1 Bool) (?F1 Bool) (?G1 Bool) (?H1 Bool) (?I1 Bool) (?J1 Bool) (?K1 Bool) (?L1 Real) (?M1 Real) (?N1 Real) (?O1 Real) (?P1 Real) (?Q1 Real) (?R1 Real) (?S1 Bool) (?T1 Bool) (?U1 Bool) (?V1 Bool) (?W1 Bool) (?X1 Bool) (?Y1 Bool) (?Z1 Bool) (?A2 Bool) (?B2 Bool) (?C2 Bool) (?D2 Bool) (?E2 Bool) (?F2 Real) (?G2 Real) (?H2 Real) (?I2 Real) (?J2 Real) (?K2 Real) (?L2 Bool) (?M2 Bool) (?N2 Bool) (?O2 Bool) (?P2 Bool) (?Q2 Bool) (?R2 Bool) (?S2 Bool) (?T2 Bool) (?U2 Bool) (?V2 Bool) (?W2 Real) (?X2 Real) (?Y2 Bool) (?Z2 Real) (?A3 Real) (?B3 Bool) (?C3 Bool) (?D3 Bool) (?E3 Bool) (?F3 Bool) (?G3 Bool) (?H3 Real) (?I3 Bool) (?J3 Real) (?K3 Real) (?L3 Bool) )(let (($x858233 (not ?C1)))
(let (($x623916 (or $x858233 ?D1)))
(let (($x69842 (and ?U ?T1 ?B1 (<= ?L1 ?J) (>= ?L1 ?J) (<= ?M1 ?L) (>= ?M1 ?L) (<= ?O1 ?M) (>= ?O1 ?M) (<= ?P1 ?N) (>= ?P1 ?N) (<= ?Q1 ?O) (>= ?Q1 ?O))))
(let (($x537579 (and ?Q ?S1 ?Y (<= ?L1 ?J) (>= ?L1 ?J) (<= ?M1 ?L) (>= ?M1 ?L) (<= ?O1 ?M) (>= ?O1 ?M) (<= ?P1 ?N) (>= ?P1 ?N) (<= ?Q1 ?O) (>= ?Q1 ?O))))
(let (($x545658 (and ?F1 ?K1 (<= ?L1 1.0) (>= ?L1 1.0) (<= ?M1 ?N1) (>= ?M1 ?N1) (<= ?O1 ?N1) (>= ?O1 ?N1) (<= ?P1 2.0) (>= ?P1 2.0) (<= ?Q1 ?R1) (>= ?Q1 ?R1))))
(let (($x802161 (or (not ?J1) (and ?K1 (not ?S1) (not ?T1)) (and ?S1 (not ?K1) (not ?T1)) (and ?T1 (not ?K1) (not ?S1)))))
(let (($x168631 (not ?A2)))
(let (($x129556 (or $x168631 ?B2)))
(let (($x550266 (>= ?J2 ?P)))
(let (($x919724 (<= ?J2 ?P)))
(let (($x461636 (>= ?G2 ?M1)))
(let (($x849252 (<= ?G2 ?M1)))
(let (($x926103 (and ?J1 ?N2 (not ?W1) (<= ?F2 ?K) (>= ?F2 ?K) $x849252 $x461636 (<= ?I2 ?Q1) (>= ?I2 ?Q1) $x919724 $x550266)))
(let (($x27918 (and ?U1 ?M2 ?Z1 (<= ?F2 ?K) (>= ?F2 ?K) $x849252 $x461636 (<= ?I2 ?Q1) (>= ?I2 ?Q1) $x919724 $x550266)))
(let (($x401624 (and ?X1 ?L2 (not ?C2) (<= ?F2 1.0) (>= ?F2 1.0) $x849252 $x461636 (<= ?I2 2.0) (>= ?I2 2.0) $x919724 $x550266)))
(let (($x813917 (and ?A2 ?E2 (<= ?F2 1.0) (>= ?F2 1.0) (<= ?G2 ?H2) (>= ?G2 ?H2) (<= ?I2 2.0) (>= ?I2 2.0) (<= ?J2 ?K2) (>= ?J2 ?K2))))
(let (($x850777 (not ?D2)))
(let (($x447162 (or $x850777 (and ?E2 (not ?L2) (not ?M2) (not ?N2)) (and ?L2 (not ?E2) (not ?M2) (not ?N2)) (and ?M2 (not ?E2) (not ?L2) (not ?N2)) (and ?N2 (not ?E2) (not ?L2) (not ?M2)))))
(let (($x410574 (not ?U2)))
(let (($x532195 (or $x410574 ?V2)))
(let (($x522520 (and ?Z ?Y2 (<= ?A ?J) (>= ?A ?J) (<= ?B ?K) (>= ?B ?K) (<= ?C ?Z2) (>= ?C ?Z2) (<= ?D ?L) (>= ?D ?L) (<= ?E ?M) (>= ?E ?M) (<= ?F ?N) (>= ?F ?N) (<= ?G ?O) (>= ?G ?O) (<= ?H ?P) (>= ?H ?P))))
(let (($x304005 (and ?R2 (not ?I) (<= ?A ?L1) (>= ?A ?L1) (<= ?B ?F2) (>= ?B ?F2) (<= ?C 1.0) (>= ?C 1.0) (<= ?D ?G2) (>= ?D ?G2) (<= ?E ?O1) (>= ?E ?O1) (<= ?F ?P1) (>= ?F ?P1) (<= ?G ?I2) (>= ?G ?I2) (<= ?H 2.0) (>= ?H 2.0))))
(let (($x196856 (and ?U2 (<= ?A ?L1) (>= ?A ?L1) (<= ?B ?F2) (>= ?B ?F2) (<= ?C 1.0) (>= ?C 1.0) (<= ?D ?W2) (>= ?D ?W2) (<= ?E ?O1) (>= ?E ?O1) (<= ?F ?X2) (>= ?F ?X2) (<= ?G ?I2) (>= ?G ?I2) (<= ?H 2.0) (>= ?H 2.0))))
(let (($x277840 (and (|cp-rel-bb.i80.i| ?I ?J ?K ?L ?M ?N ?O ?P) (= ?L3 (= ?L1 1.0)) (= ?W2 (+ 1.0 ?G2)) (= ?T2 (= ?K3 0.0)) (= ?Q2 (= ?J2 0.0)) (= ?K2 (ite ?I 0.0 ?P)) (= ?H2 (+ 1.0 ?M1)) (= ?C2 (= ?K 1.0)) (= ?Z1 (= ?J3 0.0)) (= ?W1 (= ?Q1 0.0)) (= ?R1 (ite ?I3 0.0 ?O)) (= ?I3 (= ?K 1.0)) (= ?H1 (= ?H3 ?L)) (= ?H3 (+ 2.0 ?M)) (= ?Y2 (or ?G3 ?F3)) (= ?G3 (or ?E3 ?D3)) (= ?F3 (= ?P 0.0)) (= ?E3 (= ?O 0.0)) (= ?D3 (= ?N 0.0)) (= ?E1 (= ?J 1.0)) (= ?B1 (or ?C3 ?B3)) (= ?C3 (= ?P 0.0)) (= ?B3 (= ?O 0.0)) (= ?Y (= ?A3 0.0)) (= ?T (= ?N 0.0)) (or $x196856 $x304005 $x522520) $x532195 (or $x410574 (and ?R2 ?V2 ?I)) (or (not ?R2) ?S2) (or (not ?R2) (and ?O2 ?S2 (not ?T2))) (or (not ?O2) ?P2) (or (not ?O2) (and ?D2 ?P2 ?Q2)) $x447162 (or $x850777 $x813917 $x401624 $x27918 $x926103) $x129556 (or $x168631 (and ?X1 ?B2 ?C2)) (or (not ?X1) ?Y1) (or (not ?X1) (and ?U1 ?Y1 (not ?Z1))) (or (not ?U1) ?V1) (or (not ?U1) (and ?J1 ?V1 ?W1)) $x802161 (or (not ?J1) $x545658 $x537579 $x69842) (or (not ?F1) (and ?G1 (not ?I1)) (and ?I1 (not ?G1))) (or (not ?F1) (and ?C1 ?G1 ?H1) (and ?W ?I1 (not ?E1))) $x623916 (or $x858233 (and ?W ?D1 ?E1)) (or (not ?Z) ?A1) (or (not ?Z) (and ?U ?A1 (not ?B1))) (or (not ?W) ?X) (or (not ?W) (and ?Q ?X (not ?Y))) (or (not ?U) ?V) (or (not ?U) (and ?R ?V (not ?T))) (or (not ?Q) ?S) (or (not ?Q) (and ?R ?S ?T)) (= ?X2 (ite ?L3 0.0 ?P1)))))
(=> $x277840 (|cp-rel-bb.i80.i.outer| ?A ?B ?C ?D ?E ?F ?G ?H)))))))))))))))))))))))))))
)
(assert (forall ((?A Real) (?B Real) (?C Real) (?D Real) (?E Real) (?F Real) (?G Real) (?H Real) (?I Bool) (?J Real) (?K Real) (?L Real) (?M Real) (?N Real) (?O Real) (?P Real) (?Q Bool) )(let (($x168081 (= ?Q true)))
(let (($x361584 (and (|cp-rel-bb.i80.i.outer| ?A ?B ?C ?D ?E ?F ?G ?H) (>= ?P ?H) (<= ?P ?H) (>= ?O ?G) (<= ?O ?G) (>= ?N ?F) (<= ?N ?F) (>= ?M ?E) (<= ?M ?E) (>= ?L ?D) (<= ?L ?D) (>= ?K ?B) (<= ?K ?B) (>= ?J ?A) (<= ?J ?A) $x168081 (= ?I (= ?C 1.0)))))
(=> $x361584 (|cp-rel-bb.i80.i| ?I ?J ?K ?L ?M ?N ?O ?P)))))
)
(assert (forall ((?A Bool) (?B Real) (?C Real) (?D Real) (?E Real) (?F Real) (?G Real) (?H Real) (?I Bool) (?J Bool) (?K Bool) (?L Bool) (?M Bool) (?N Bool) (?O Bool) (?P Bool) (?Q Bool) (?R Bool) (?S Bool) (?T Bool) (?U Bool) (?V Bool) (?W Bool) (?X Bool) (?Y Bool) (?Z Bool) (?A1 Bool) (?B1 Real) (?C1 Real) (?D1 Real) (?E1 Real) (?F1 Real) (?G1 Real) (?H1 Real) (?I1 Bool) (?J1 Bool) (?K1 Bool) (?L1 Bool) (?M1 Bool) (?N1 Bool) (?O1 Bool) (?P1 Bool) (?Q1 Bool) (?R1 Bool) (?S1 Bool) (?T1 Bool) (?U1 Bool) (?V1 Real) (?W1 Real) (?X1 Real) (?Y1 Real) (?Z1 Real) (?A2 Real) (?B2 Bool) (?C2 Bool) (?D2 Bool) (?E2 Bool) (?F2 Bool) (?G2 Bool) (?H2 Bool) (?I2 Real) (?J2 Bool) (?K2 Bool) (?L2 Real) (?M2 Bool) (?N2 Real) (?O2 Real) (?P2 Real) (?Q2 Real) (?R2 Real) (?S2 Real) (?T2 Real) (?U2 Real) (?V2 Real) )(let (($x858233 (not ?M)))
(let (($x623916 (or $x858233 ?N)))
(let (($x384430 (and ?M ?J1 ?R (<= ?B1 ?B) (>= ?B1 ?B) (<= ?C1 ?D) (>= ?C1 ?D) (<= ?E1 ?E) (>= ?E1 ?E) (<= ?F1 ?F) (>= ?F1 ?F) (<= ?G1 ?G) (>= ?G1 ?G))))
(let (($x302901 (and ?I ?I1 ?Q (<= ?B1 ?B) (>= ?B1 ?B) (<= ?C1 ?D) (>= ?C1 ?D) (<= ?E1 ?E) (>= ?E1 ?E) (<= ?F1 ?F) (>= ?F1 ?F) (<= ?G1 ?G) (>= ?G1 ?G))))
(let (($x297034 (and ?V ?A1 (<= ?B1 1.0) (>= ?B1 1.0) (<= ?C1 ?D1) (>= ?C1 ?D1) (<= ?E1 ?D1) (>= ?E1 ?D1) (<= ?F1 2.0) (>= ?F1 2.0) (<= ?G1 ?H1) (>= ?G1 ?H1))))
(let (($x465448 (or (not ?Z) (and ?A1 (not ?I1) (not ?J1)) (and ?I1 (not ?A1) (not ?J1)) (and ?J1 (not ?A1) (not ?I1)))))
(let (($x168631 (not ?K1)))
(let (($x129556 (or $x168631 ?L1)))
(let (($x220518 (>= ?Z1 ?H)))
(let (($x419140 (<= ?Z1 ?H)))
(let (($x572684 (>= ?W1 ?C1)))
(let (($x231117 (<= ?W1 ?C1)))
(let (($x864723 (and ?Z ?D2 (not ?M1) (<= ?V1 ?C) (>= ?V1 ?C) $x231117 $x572684 (<= ?Y1 ?G1) (>= ?Y1 ?G1) $x419140 $x220518)))
(let (($x136085 (and ?K1 ?C2 ?P1 (<= ?V1 ?C) (>= ?V1 ?C) $x231117 $x572684 (<= ?Y1 ?G1) (>= ?Y1 ?G1) $x419140 $x220518)))
(let (($x363903 (and ?N1 ?B2 (not ?S1) (<= ?V1 1.0) (>= ?V1 1.0) $x231117 $x572684 (<= ?Y1 2.0) (>= ?Y1 2.0) $x419140 $x220518)))
(let (($x141247 (and ?Q1 ?U1 (<= ?V1 1.0) (>= ?V1 1.0) (<= ?W1 ?X1) (>= ?W1 ?X1) (<= ?Y1 2.0) (>= ?Y1 2.0) (<= ?Z1 ?A2) (>= ?Z1 ?A2))))
(let (($x265251 (or (not ?T1) (and ?U1 (not ?B2) (not ?C2) (not ?D2)) (and ?B2 (not ?U1) (not ?C2) (not ?D2)) (and ?C2 (not ?U1) (not ?B2) (not ?D2)) (and ?D2 (not ?U1) (not ?B2) (not ?C2)))))
(let (($x410574 (not ?E2)))
(let (($x532195 (or $x410574 ?F2)))
(let (($x376952 (and ?T1 (not ?G2) (<= ?P2 ?B1) (>= ?P2 ?B1) (<= ?Q2 ?V1) (>= ?Q2 ?V1) (<= ?R2 ?W1) (>= ?R2 ?W1) (<= ?S2 ?E1) (>= ?S2 ?E1) (<= ?T2 ?F1) (>= ?T2 ?F1) (<= ?U2 ?Y1) (>= ?U2 ?Y1) (<= ?V2 ?Z1) (>= ?V2 ?Z1))))
(let (($x873235 (and ?E2 ?H2 (<= ?P2 ?B1) (>= ?P2 ?B1) (<= ?Q2 ?V1) (>= ?Q2 ?V1) (<= ?R2 ?W1) (>= ?R2 ?W1) (<= ?S2 ?E1) (>= ?S2 ?E1) (<= ?T2 ?F1) (>= ?T2 ?F1) (<= ?U2 ?Y1) (>= ?U2 ?Y1) (<= ?V2 ?Z1) (>= ?V2 ?Z1))))
(let (($x850129 (and (|cp-rel-bb.i80.i| ?A ?B ?C ?D ?E ?F ?G ?H) (= ?G2 (= ?Z1 0.0)) (= ?A2 (ite ?A 0.0 ?H)) (= ?X1 (+ 1.0 ?C1)) (= ?S1 (= ?C 1.0)) (= ?P1 (= ?N2 0.0)) (= ?M1 (= ?G1 0.0)) (= ?H1 (ite ?M2 0.0 ?G)) (= ?M2 (= ?C 1.0)) (= ?X (= ?L2 ?D)) (= ?L2 (+ 2.0 ?E)) (= ?U (= ?B 1.0)) (= ?R (or ?K2 ?J2)) (= ?K2 (= ?H 0.0)) (= ?J2 (= ?G 0.0)) (= ?Q (= ?I2 0.0)) (= ?L (= ?F 0.0)) (or $x873235 $x376952) $x532195 (or $x410574 (and ?T1 ?F2 ?G2)) $x265251 (or (not ?T1) $x141247 $x363903 $x136085 $x864723) (or (not ?Q1) ?R1) (or (not ?Q1) (and ?N1 ?R1 ?S1)) (or (not ?N1) ?O1) (or (not ?N1) (and ?K1 ?O1 (not ?P1))) $x129556 (or $x168631 (and ?Z ?L1 ?M1)) $x465448 (or (not ?Z) $x297034 $x302901 $x384430) (or (not ?V) (and ?W (not ?Y)) (and ?Y (not ?W))) (or (not ?V) (and ?S ?W ?X) (and ?O ?Y (not ?U))) (or (not ?S) ?T) (or (not ?S) (and ?O ?T ?U)) (or (not ?O) ?P) (or (not ?O) (and ?I ?P (not ?Q))) $x623916 (or $x858233 (and ?J ?N (not ?L))) (or (not ?I) ?K) (or (not ?I) (and ?J ?K ?L)) (= ?H2 (= ?O2 0.0)))))
(=> $x850129 (|cp-rel-bb.i80.i| ?A ?P2 ?Q2 ?R2 ?S2 ?T2 ?U2 ?V2)))))))))))))))))))))))))
)
(assert (forall ((?A Bool) (?B Real) (?C Real) (?D Real) (?E Real) (?F Real) (?G Real) (?H Real) (?I Bool) (?J Bool) (?K Bool) (?L Bool) (?M Bool) (?N Bool) (?O Bool) (?P Bool) (?Q Bool) (?R Bool) (?S Bool) (?T Bool) (?U Bool) (?V Bool) (?W Real) (?X Real) (?Y Real) (?Z Real) (?A1 Real) (?B1 Real) (?C1 Real) )(let (($x868560 (|cp-rel-__UFO__0| ?W ?X ?Y ?Z ?A1 ?B1 ?C1 ?A ?B ?C ?D ?E ?F ?G ?H)))
(let (($x343891 (and (|cp-rel-bb.i80.i| ?A ?B ?C ?D ?E ?F ?G ?H) (= ?V (or ?T ?S)) (= ?U (= ?H 0.0)) (= ?T (= ?G 0.0)) (= ?S (= ?F 0.0)) (= ?O (or ?R ?Q)) (= ?R (= ?H 0.0)) (= ?Q (= ?G 0.0)) (= ?J (= ?F 0.0)) (not (= ?P true)) (= ?M true) (or (not ?M) ?N) (or (not ?M) (and ?K ?N (not ?O))) (or (not ?K) ?L) (or (not ?K) (and ?I ?L (not ?J))) (= ?P (or ?V ?U)))))
(=> $x343891 $x868560))))
)
(assert (forall ((?A Bool) (?B Real) (?C Real) (?D Real) (?E Real) (?F Real) (?G Real) (?H Real) (?I Real) (?J Real) (?K Real) (?L Real) (?M Real) (?N Real) (?O Real) (?P Bool) )(let (($x71570 (|cp-rel-__UFO__0| ?B ?C ?D ?E ?F ?G ?H ?A ?I ?J ?K ?L ?M ?N ?O)))
(=> (and $x71570 (= ?P true)) $x71570)))
)
(assert (forall ((?A Bool) (?B Real) (?C Real) (?D Real) (?E Real) (?F Real) (?G Real) (?H Real) (?I Bool) (?J Bool) (?K Bool) (?L Bool) (?M Bool) (?N Bool) (?O Bool) (?P Bool) (?Q Bool) (?R Bool) (?S Bool) (?T Real) (?U Real) )(let (($x336928 (and (|cp-rel-bb.i80.i| ?A ?B ?C ?D ?E ?F ?G ?H) (= ?U (+ 2.0 ?E)) (= ?R (= ?B 1.0)) (= ?O (= ?T 0.0)) (= ?L (= ?F 0.0)) (not (= ?S true)) (= ?P true) (or (not ?P) ?Q) (or (not ?P) (and ?M ?Q ?R)) (or (not ?M) ?N) (or (not ?M) (and ?I ?N (not ?O))) (or (not ?I) ?K) (or (not ?I) (and ?J ?K ?L)) (= ?S (= ?U ?D)))))
(=> $x336928 |cp-rel-bb1.i66.i.i|)))
)
(assert (not cp-rel-bb1.i66.i.i))
(check-sat)
